170971
20,4,47,18,49,3,58,52,30,34,62,78,14,24,41,11,77,40,51,38,82,7,67,21,27,60,5,68,54,42,71,22,2,33,48,56,59,46,80,50,55,16,6,76,57,8,65,79,75,19,13,69,66,25,44,45,53,61,35,70,31,73,39,81,74,37,15,29,1,26,32,10,43,23,17,36,64,12,63,72,9,0,28
